(set-info :source |printed by MathSAT|)
(declare-fun |!{N}| () Int)
(declare-fun |!{N}.next| () Int)
(declare-fun |!{i}| () Int)
(declare-fun |!{i}.next| () Int)
(declare-fun |!{x}| () Int)
(declare-fun |!{x}.next| () Int)
(declare-fun |!{a.1}| () (Array Int Int))
(declare-fun |!{a.1}.next| () (Array Int Int))
(declare-fun |!pc[0]| () Bool)
(declare-fun |!pc[0].next| () Bool)
(declare-fun |!pc[1]| () Bool)
(declare-fun |!pc[1].next| () Bool)
(declare-fun |!pc[2]| () Bool)
(declare-fun |!pc[2].next| () Bool)
(declare-fun |!pc[3]| () Bool)
(declare-fun |!pc[3].next| () Bool)
(declare-fun |%{x}#1| () Int)
(declare-fun |%{a.1}#1| () (Array Int Int))
(declare-fun nd<0> () Int)
(define-fun .def_31 () Bool (! |!pc[3]| :next |!pc[3].next|))
(define-fun .def_38 () Bool (not .def_31))
(define-fun .def_29 () Bool (! |!pc[2]| :next |!pc[2].next|))
(define-fun .def_36 () Bool (not .def_29))
(define-fun .def_27 () Bool (! |!pc[1]| :next |!pc[1].next|))
(define-fun .def_34 () Bool (not .def_27))
(define-fun .def_25 () Bool (! |!pc[0]| :next |!pc[0].next|))
(define-fun .def_33 () Bool (not .def_25))
(define-fun .def_35 () Bool (and .def_33 .def_34))
(define-fun .def_37 () Bool (and .def_35 .def_36))
(define-fun .def_39 () Bool (! (and .def_37 .def_38) :init true))
(define-fun .def_142 () Bool (and .def_25 .def_34))
(define-fun .def_206 () Bool (and .def_36 .def_142))
(define-fun .def_233 () Bool (and .def_38 .def_206))
(define-fun .def_105 () Bool (not |!pc[0].next|))
(define-fun .def_106 () Bool (and |!pc[1].next| .def_105))
(define-fun .def_59 () Bool (not |!pc[2].next|))
(define-fun .def_107 () Bool (and .def_59 .def_106))
(define-fun .def_221 () Bool (and |!pc[3].next| .def_107))
(define-fun .def_236 () Bool (and .def_221 .def_233))
(define-fun .def_8 () Int (! |!{N}| :next |!{N}.next|))
(define-fun .def_75 () Bool (= .def_8 |!{N}.next|))
(define-fun .def_50 () Bool (= |!{i}.next| 0))
(define-fun .def_158 () Bool (and .def_50 .def_75))
(define-fun .def_12 () Int (! |!{x}| :next |!{x}.next|))
(define-fun .def_79 () Bool (= .def_12 |!{x}.next|))
(define-fun .def_159 () Bool (and .def_79 .def_158))
(define-fun .def_14 () (Array Int Int) (! |!{a.1}| :next |!{a.1}.next|))
(define-fun .def_81 () Bool (= .def_14 |!{a.1}.next|))
(define-fun .def_160 () Bool (and .def_81 .def_159))
(define-fun .def_10 () Int (! |!{i}| :next |!{i}.next|))
(define-fun .def_125 () Bool (<= .def_8 .def_10))
(define-fun .def_161 () Bool (and .def_125 .def_160))
(define-fun .def_237 () Bool (and .def_161 .def_236))
(define-fun .def_61 () Bool (not |!pc[3].next|))
(define-fun .def_57 () Bool (not |!pc[1].next|))
(define-fun .def_58 () Bool (and |!pc[0].next| .def_57))
(define-fun .def_60 () Bool (and .def_58 .def_59))
(define-fun .def_62 () Bool (and .def_60 .def_61))
(define-fun .def_234 () Bool (and .def_62 .def_233))
(define-fun .def_229 () (Array Int Int) (store .def_14 .def_10 42))
(define-fun .def_230 () Bool (= |!{a.1}.next| .def_229))
(define-fun .def_130 () Int (* (- 1) |!{i}.next|))
(define-fun .def_131 () Int (+ .def_10 .def_130))
(define-fun .def_132 () Bool (= .def_131 (- 1)))
(define-fun .def_133 () Bool (and .def_75 .def_132))
(define-fun .def_134 () Bool (and .def_79 .def_133))
(define-fun .def_231 () Bool (and .def_134 .def_230))
(define-fun .def_126 () Bool (not .def_125))
(define-fun .def_232 () Bool (and .def_126 .def_231))
(define-fun .def_235 () Bool (and .def_232 .def_234))
(define-fun .def_238 () Bool (or .def_235 .def_237))
(define-fun .def_97 () Bool (and .def_27 .def_33))
(define-fun .def_98 () Bool (and .def_36 .def_97))
(define-fun .def_220 () Bool (and .def_31 .def_98))
(define-fun .def_208 () Bool (and |!pc[3].next| .def_60))
(define-fun .def_224 () Bool (and .def_208 .def_220))
(define-fun .def_225 () Bool (and .def_161 .def_224))
(define-fun .def_222 () Bool (and .def_220 .def_221))
(define-fun .def_216 () (Array Int Int) (store .def_14 .def_10 43))
(define-fun .def_217 () Bool (= |!{a.1}.next| .def_216))
(define-fun .def_218 () Bool (and .def_134 .def_217))
(define-fun .def_219 () Bool (and .def_126 .def_218))
(define-fun .def_223 () Bool (and .def_219 .def_222))
(define-fun .def_226 () Bool (or .def_223 .def_225))
(define-fun .def_207 () Bool (and .def_31 .def_206))
(define-fun .def_112 () Bool (and .def_57 .def_105))
(define-fun .def_193 () Bool (and .def_59 .def_112))
(define-fun .def_194 () Bool (and |!pc[3].next| .def_193))
(define-fun .def_211 () Bool (and .def_194 .def_207))
(define-fun .def_212 () Bool (and .def_161 .def_211))
(define-fun .def_209 () Bool (and .def_207 .def_208))
(define-fun .def_202 () (Array Int Int) (store .def_14 .def_10 44))
(define-fun .def_203 () Bool (= |!{a.1}.next| .def_202))
(define-fun .def_204 () Bool (and .def_134 .def_203))
(define-fun .def_205 () Bool (and .def_126 .def_204))
(define-fun .def_210 () Bool (and .def_205 .def_209))
(define-fun .def_213 () Bool (or .def_210 .def_212))
(define-fun .def_192 () Bool (and .def_31 .def_37))
(define-fun .def_100 () Bool (and |!pc[0].next| |!pc[1].next|))
(define-fun .def_179 () Bool (and |!pc[2].next| .def_100))
(define-fun .def_180 () Bool (and .def_61 .def_179))
(define-fun .def_197 () Bool (and .def_180 .def_192))
(define-fun .def_198 () Bool (and .def_161 .def_197))
(define-fun .def_195 () Bool (and .def_192 .def_194))
(define-fun .def_188 () (Array Int Int) (store .def_14 .def_10 45))
(define-fun .def_189 () Bool (= |!{a.1}.next| .def_188))
(define-fun .def_190 () Bool (and .def_134 .def_189))
(define-fun .def_191 () Bool (and .def_126 .def_190))
(define-fun .def_196 () Bool (and .def_191 .def_195))
(define-fun .def_199 () Bool (or .def_196 .def_198))
(define-fun .def_119 () Bool (and .def_25 .def_27))
(define-fun .def_177 () Bool (and .def_29 .def_119))
(define-fun .def_178 () Bool (and .def_38 .def_177))
(define-fun .def_164 () Bool (and |!pc[2].next| .def_106))
(define-fun .def_165 () Bool (and .def_61 .def_164))
(define-fun .def_183 () Bool (and .def_165 .def_178))
(define-fun .def_184 () Bool (and .def_161 .def_183))
(define-fun .def_181 () Bool (and .def_178 .def_180))
(define-fun .def_173 () (Array Int Int) (store .def_14 .def_10 46))
(define-fun .def_174 () Bool (= |!{a.1}.next| .def_173))
(define-fun .def_175 () Bool (and .def_134 .def_174))
(define-fun .def_176 () Bool (and .def_126 .def_175))
(define-fun .def_182 () Bool (and .def_176 .def_181))
(define-fun .def_185 () Bool (or .def_182 .def_184))
(define-fun .def_162 () Bool (and .def_29 .def_97))
(define-fun .def_163 () Bool (and .def_38 .def_162))
(define-fun .def_145 () Bool (and |!pc[2].next| .def_58))
(define-fun .def_146 () Bool (and .def_61 .def_145))
(define-fun .def_168 () Bool (and .def_146 .def_163))
(define-fun .def_169 () Bool (and .def_161 .def_168))
(define-fun .def_166 () Bool (and .def_163 .def_165))
(define-fun .def_154 () (Array Int Int) (store .def_14 .def_10 47))
(define-fun .def_155 () Bool (= |!{a.1}.next| .def_154))
(define-fun .def_156 () Bool (and .def_134 .def_155))
(define-fun .def_157 () Bool (and .def_126 .def_156))
(define-fun .def_167 () Bool (and .def_157 .def_166))
(define-fun .def_170 () Bool (or .def_167 .def_169))
(define-fun .def_143 () Bool (and .def_29 .def_142))
(define-fun .def_144 () Bool (and .def_38 .def_143))
(define-fun .def_108 () Bool (and .def_61 .def_107))
(define-fun .def_149 () Bool (and .def_108 .def_144))
(define-fun .def_138 () Bool (= |!{x}.next| 0))
(define-fun .def_77 () Bool (= .def_10 |!{i}.next|))
(define-fun .def_84 () Bool (and .def_75 .def_77))
(define-fun .def_139 () Bool (and .def_84 .def_138))
(define-fun .def_140 () Bool (and .def_81 .def_139))
(define-fun .def_141 () Bool (and .def_125 .def_140))
(define-fun .def_150 () Bool (and .def_141 .def_149))
(define-fun .def_147 () Bool (and .def_144 .def_146))
(define-fun .def_128 () (Array Int Int) (store .def_14 .def_10 48))
(define-fun .def_135 () Bool (= |!{a.1}.next| .def_128))
(define-fun .def_136 () Bool (and .def_134 .def_135))
(define-fun .def_137 () Bool (and .def_126 .def_136))
(define-fun .def_148 () Bool (and .def_137 .def_147))
(define-fun .def_151 () Bool (or .def_148 .def_150))
(define-fun .def_120 () Bool (and .def_36 .def_119))
(define-fun .def_121 () Bool (and .def_38 .def_120))
(define-fun .def_122 () Bool (and .def_108 .def_121))
(define-fun .def_86 () Int (* (- 1) |!{x}.next|))
(define-fun .def_87 () Int (+ .def_12 .def_86))
(define-fun .def_88 () Bool (= .def_87 (- 1)))
(define-fun .def_89 () Bool (and .def_84 .def_88))
(define-fun .def_90 () Bool (and .def_81 .def_89))
(define-fun .def_123 () Bool (and .def_90 .def_122))
(define-fun .def_113 () Bool (and |!pc[2].next| .def_112))
(define-fun .def_114 () Bool (and .def_61 .def_113))
(define-fun .def_99 () Bool (and .def_38 .def_98))
(define-fun .def_115 () Bool (and .def_99 .def_114))
(define-fun .def_65 () Bool (<= .def_8 .def_12))
(define-fun .def_93 () Bool (and .def_65 .def_75))
(define-fun .def_94 () Bool (and .def_77 .def_93))
(define-fun .def_95 () Bool (and .def_79 .def_94))
(define-fun .def_96 () Bool (and .def_81 .def_95))
(define-fun .def_116 () Bool (and .def_96 .def_115))
(define-fun .def_109 () Bool (and .def_99 .def_108))
(define-fun .def_67 () Int (select .def_14 .def_12))
(define-fun .def_69 () Bool (= .def_67 48))
(define-fun .def_91 () Bool (and .def_69 .def_90))
(define-fun .def_66 () Bool (not .def_65))
(define-fun .def_92 () Bool (and .def_66 .def_91))
(define-fun .def_110 () Bool (and .def_92 .def_109))
(define-fun .def_101 () Bool (and .def_59 .def_100))
(define-fun .def_102 () Bool (and .def_61 .def_101))
(define-fun .def_103 () Bool (and .def_99 .def_102))
(define-fun .def_70 () Bool (not .def_69))
(define-fun .def_76 () Bool (and .def_70 .def_75))
(define-fun .def_78 () Bool (and .def_76 .def_77))
(define-fun .def_80 () Bool (and .def_78 .def_79))
(define-fun .def_82 () Bool (and .def_80 .def_81))
(define-fun .def_83 () Bool (and .def_66 .def_82))
(define-fun .def_104 () Bool (and .def_83 .def_103))
(define-fun .def_111 () Bool (or .def_104 .def_110))
(define-fun .def_117 () Bool (or .def_111 .def_116))
(define-fun .def_63 () Bool (and .def_39 .def_62))
(define-fun .def_54 () Bool (= |!{a.1}.next| |%{a.1}#1|))
(define-fun .def_52 () Bool (= |!{x}.next| |%{x}#1|))
(define-fun .def_49 () Bool (= |!{N}.next| nd<0>))
(define-fun .def_51 () Bool (and .def_49 .def_50))
(define-fun .def_53 () Bool (and .def_51 .def_52))
(define-fun .def_55 () Bool (and .def_53 .def_54))
(define-fun .def_47 () Bool (<= nd<0> 0))
(define-fun .def_48 () Bool (not .def_47))
(define-fun .def_56 () Bool (and .def_48 .def_55))
(define-fun .def_64 () Bool (and .def_56 .def_63))
(define-fun .def_118 () Bool (or .def_64 .def_117))
(define-fun .def_124 () Bool (or .def_118 .def_123))
(define-fun .def_152 () Bool (or .def_124 .def_151))
(define-fun .def_171 () Bool (or .def_152 .def_170))
(define-fun .def_186 () Bool (or .def_171 .def_185))
(define-fun .def_200 () Bool (or .def_186 .def_199))
(define-fun .def_214 () Bool (or .def_200 .def_213))
(define-fun .def_227 () Bool (or .def_214 .def_226))
(define-fun .def_239 () Bool (! (or .def_227 .def_238) :trans true))
(define-fun .def_240 () Bool (! (not .def_121) :invar-property 0))
(assert true)
